p cnf 10 50
6 7 10 0
-6 -3 9 0
-6 2 10 0
3 5 7 0
-7 -3 5 0
-9 3 5 0
-10 -4 4 0
-9 -1 5 0
5 8 10 0
-8 2 3 0
-8 -2 6 0
-10 -5 -1 0
-4 5 6 0
-9 -4 -3 0
-7 -4 -3 0
-7 4 10 0
-9 1 8 0
-5 -4 8 0
-7 -5 6 0
-10 -3 1 0
-3 -1 6 0
-2 8 9 0
-3 1 7 0
-7 -2 3 0
-8 4 6 0
-9 -7 -6 0
-10 -4 10 0
-10 -2 9 0
-7 -5 -2 0
-8 -6 9 0
-7 -6 7 0
-1 3 9 0
-8 -4 -3 0
2 9 10 0
-3 -1 1 0
-9 -2 3 0
-5 4 10 0
-9 2 7 0
-7 3 7 0
3 5 8 0
-10 3 9 0
-2 -2 8 0
-10 6 7 0
-7 1 4 0
-10 -5 3 0
-1 4 5 0
1 5 10 0
-9 5 7 0
-9 -1 10 0
-10 2 4 0
